
  22   10
  10   10   10   10   10   10   10   10   10   10

   0   0   0   0   0   0   0   0   0   0   0  12 2 3 4 5 6 7 8 9 18 19 20 21 
  10  10   0   0   0   0   0   0   0   0   0   6 17 14 13 12 11 10 
   9   0   0   0   0   0  10   0   0   0   0   3 16 14 10 
   6   0   0   0   0   0   0   0  10   0   0   2 13 10 
   8   0   0   0   0   0   0   0   0   0  10   2 12 10 
   5   0   0  10   0   0   0   0   0   0   0   1 10 
   3  10   0   0   0   0   0   0   0   0   0   1 15 
   7   0   0   0   0   0   0   0   0  10   0   1 11 
   4  10   0   0   0   0   0   0   0   0   0   1 10 
   6  10   0   0   0   0   0   0   0   0   0   1 22
   2   0   0   0   0   0   0   0  10   0   0   1 22
   8   0  10   0   0   0   0   0   0   0   0   1 22
   1   0   0  10   0   0   0   0   0   0   0   1 22
   2   0   0   0   0   0  10   0   0   0   0   1 22
   2   0  10   0   0   0   0   0   0   0   0   1 22
   4   0  10   0   0   0   0   0   0   0   0   1 22
   5   0   0   0   0   0   0   0  10   0   0   1 22
   6  10   0   0   0   0   0   0   0   0   0   1 22
  10   0   0   0  10   0   0   0   0   0   0   1 22
   7   0   0   0   0   0  10   0   0   0   0   1 22
   3   0   0  10   0   0   0   0   0   0   0   1 22
   0   0   0   0   0   0   0   0   0   0   0   0 
